NAME : att48.tsp
COMMENT : Optimal tour for att48.tsp
TYPE : TOUR
DIMENSION : 48
Total Length: 34265.95172028925
TOUR_SECTION
1
16
22
3
34
41
29
2
26
4
35
45
10
24
42
5
48
39
32
21
13
25
14
23
11
47
20
36
30
43
17
27
19
37
6
28
7
18
44
31
38
46
33
12
15
40
9
8
-1
EOF
